50
20594

577 97
393 324
323 965
239 527
663 595
654 954
150 756
427 969
556 508
369 132
12 370
312 200
209 819
36 831
133 19
579 71
388 675
60 635
753 114
853 797
567 16
544 757
789 335
93 850
422 628
413 971
817 533
919 253
712 808
477 477
370 38
541 486
445 652
278 540
38 649
333 996
568 451
41 42
474 435
906 110
325 835
864 378
210 674
905 189
615 322
28 585
242 785
685 21
599 878
748 294
